* Signature: 0x7f3c5337b2cc6cb7
NAME lp_typeD_106
OBJSENSE MAX
ROWS
 N  OBJ
 L  c0      
 G  c1      
 G  c2      
 L  c_key_upper
 G  c_key_lower
 G  _chain_constr_1
 G  _chain_constr_2
 G  _chain_constr_3
 G  _chain_cycle
COLUMNS
    x0        OBJ       1.1245827168945255e+00
    x0        c0        1.9980159944849731e+00
    x0        c1        1.9808865983053057e+00
    x0        c2        1.4150245215819117e+00
    x0        c_key_upper  1.0488087483109521e+00
    x0        c_key_lower  1.0488087483109521e+00
    x1        OBJ       7.1662343452124910e-01
    x1        c0        1.3720017789979535e+00
    x1        c1        8.1098652625690315e-01
    x1        c2        1.4104561186689790e+00
    x1        c_key_upper  1.9752229156402581e+00
    x1        c_key_lower  1.9752229156402581e+00
    x2        OBJ       1.2113318907026818e+00
    x2        c0        1.5558247187822514e+00
    x2        c1        5.7404528881332229e-01
    x2        c2        1.1974318118481937e+00
    x2        c_key_upper  1.7215036836201576e+00
    x2        c_key_lower  1.7215036836201576e+00
    x3        OBJ       6.9429884770581363e-01
    x3        c0        1.0750964105851364e+00
    x3        c1        1.1473013433069352e+00
    x3        c2        1.3991832187333257e+00
    x3        c_key_upper  1.24797666195606
    x3        c_key_lower  1.24797666195606
    x4        OBJ       1.0493583721200426e+00
    x4        c0        1.6438854279358976e+00
    x4        c1        1.0432781108665519e+00
    x4        c2        1.5311083952040665e+00
    x4        c_key_upper  1.9109477200750309e+00
    x4        c_key_lower  1.9109477200750309e+00
    x5        OBJ       8.6632207447885157e-01
    x5        c0        1.0847185364304521e+00
    x5        c1        1.5284939776428188e+00
    x5        c2        1.2917094605358019e+00
    x5        c_key_upper  1.3323271742638148e+00
    x5        c_key_lower  1.3323271742638148e+00
    _chain_var_0  _chain_constr_1  -1
    _chain_var_0  _chain_cycle  1
    _chain_var_1  _chain_constr_1  1
    _chain_var_1  _chain_constr_2  -1
    _chain_var_2  _chain_constr_2  1
    _chain_var_2  _chain_constr_3  -1
    _chain_var_3  _chain_constr_3  1
    _chain_var_3  _chain_cycle  -1
RHS
    RHS1      c0        5.1476231725555685e+01
    RHS1      c1        8.5925105321805084e+00
    RHS1      c2        8.6580178376976331e+00
    RHS1      c_key_upper  4.6183934519331373e+01
    RHS1      c_key_lower  2.3091967259665687e+01
    RHS1      _chain_constr_1  10
    RHS1      _chain_constr_2  10
    RHS1      _chain_constr_3  10
    RHS1      _chain_cycle  10
BOUNDS
 UP BND1      x0        10
 UP BND1      x1        10
 UP BND1      x2        10
 UP BND1      x3        10
 UP BND1      x4        10
 UP BND1      x5        10
 UP BND1      _chain_var_0  100
 UP BND1      _chain_var_1  100
 UP BND1      _chain_var_2  100
 UP BND1      _chain_var_3  100
ENDATA
